32      4       
14      12      9       19      
0       0       0       0       0       3       2       3       4       
2       9       0       0       0       3       10      12      13      
8       0       6       0       0       3       9       14      15      
3       0       8       0       0       3       5       6       8       
9       0       0       0       9       3       7       10      11      
7       0       6       0       0       3       15      25      28      
7       0       1       0       0       2       16      20      
10      0       0       0       4       3       12      17      19      
3       2       0       0       0       2       10      19      
3       2       0       0       0       3       18      25      26      
10      4       0       0       0       3       13      14      19      
8       0       9       0       0       3       16      23      26      
10      0       1       0       0       2       15      20      
9       0       0       9       0       3       16      17      27      
10      0       9       0       0       2       18      26      
9       2       0       0       0       2       21      29      
4       0       0       1       0       2       18      20      
7       0       0       0       9       1       23      
3       0       10      0       0       3       24      27      28      
10      10      0       0       0       3       21      23      28      
8       0       0       0       10      1       22      
9       0       0       2       0       2       24      25      
7       0       0       0       6       1       24      
1       0       9       0       0       1       30      
1       4       0       0       0       2       30      31      
2       7       0       0       0       2       27      31      
2       0       7       0       0       1       29      
1       0       0       0       9       3       29      30      31      
7       0       7       0       0       1       32      
2       1       0       0       0       1       32      
4       9       0       0       0       1       32      
0       0       0       0       0       0       